# Solution for model GasLib-40
# Objective value = 6.2830308102184667e+01
loadshed[innode_1] 0
loadshed[innode_2] 0
loadshed[innode_3] 0
loadshed[innode_4] 0
loadshed[innode_5] 0
loadshed[innode_6] 0
loadshed[innode_7] 0
loadshed[innode_8] 0
loadshed[source_1] -1.8436892751351630e-02
loadshed[source_2] 1.3418949318941731e-01
loadshed[source_3] 2.8168049276262941e-01
loadshed[sink_1] 8.6836921329004557e-01
loadshed[sink_2] 0
loadshed[sink_3] 0
loadshed[sink_4] 0
loadshed[sink_5] 0
loadshed[sink_6] 0
loadshed[sink_7] 0
loadshed[sink_8] 0
loadshed[sink_9] 0
loadshed[sink_10] 0
loadshed[sink_11] 0
loadshed[sink_12] 1
loadshed[sink_13] 0
loadshed[sink_14] 0
loadshed[sink_15] 0
loadshed[sink_16] 0
loadshed[sink_17] 0
loadshed[sink_18] 0
loadshed[sink_19] 0
loadshed[sink_20] 0
loadshed[sink_21] 1
loadshed[sink_22] 0
loadshed[sink_23] 0
loadshed[sink_24] 9.7348402098366638e-01
loadshed[sink_25] 0
loadshed[sink_26] 0
loadshed[sink_27] 0
loadshed[sink_28] 0
loadshed[sink_29] 0
flow[source_1,sink_3] 1.6100497127419806e+02
flow[innode_1,sink_16] 1.6354166666666970e+01
flow[innode_6,sink_13] 9.1983623431467265e-01
flow[sink_13,sink_14] -1.5434330432351995e+01
flow[sink_14,sink_10] -3.1788497099018663e+01
flow[sink_25,sink_26] 0
flow[sink_26,sink_9] 8.4357191897815355e+01
flow[sink_9,sink_18] 6.8003025231148683e+01
flow[sink_26,sink_4] -1.0071135856448201e+02
flow[sink_4,sink_20] -1.1706552523114868e+02
flow[sink_18,sink_6] 5.1648858564482012e+01
flow[sink_25,innode_8] -1.2829663794086167e+02
flow[sink_6,sink_7] 1.6787813406829624e+01
flow[sink_6,sink_22] 1.8506878490985713e+01
flow[sink_7,sink_24] 4.3364674016295623e-01
flow[sink_22,sink_1] 2.1527118243190464e+00
flow[sink_24,sink_21] 0
flow[sink_21,sink_12] 0
flow[sink_7,sink_5] 0
flow[sink_5,sink_17] -1.6354166666667197e+01
flow[sink_17,sink_4] 0
flow[sink_17,sink_8] -3.2708333333333840e+01
flow[sink_3,sink_23] 16.3541666666697
flow[sink_8,sink_20] -4.9062500000000512e+01
flow[sink_25,sink_20] 1.8248219189781582e+02
flow[sink_25,sink_15] -7.1459556857935709e+01
flow[sink_15,sink_29] -5.0531023384888243e+01
flow[sink_29,sink_28] 1.6354166666667879e+01
flow[sink_29,sink_2] 5.3636866806380795e+01
flow[sink_2,sink_15] 3.7282700139714130e+01
flow[sink_29,innode_7] -1.3687622352460357e+02
flow[innode_4,sink_19] 4.3786426031400573e+01
flow[sink_19,innode_3] 3.9454945312448821e+01
flow[innode_4,innode_5] 6.9772904400951788e+01
flow[sink_27,innode_5] -6.9772904400951788e+01
flow[sink_27,sink_19] 5.3418737734285124e+01
flow[sink_10,sink_11] 3.2708333333333641e+01
flow[sink_10,innode_2] -4.1396051786570148e+01
flow[sink_10,innode_3] -3.9454945312448821e+01
flow[innode_6,sink_25] -9.1983623431467265e-01
flow[sink_11,innode_1] 1.6354166666666970e+01
flow[sink_19,innode_2] 4.1396051786570148e+01
flow[source_3,innode_4] 1.1355933043235237e+02
flow[source_2,innode_7] 1.3687622352460357e+02
flow[sink_3,innode_8] 1.2829663794086167e+02
pressure[innode_1] 7.6899696697201350e+01
pressure[innode_2] 7.9239350313018548e+01
pressure[innode_3] 7.9151981804412074e+01
pressure[innode_4] 81.01325
pressure[innode_5] 8.0965256517216375e+01
pressure[innode_6] 7.5525296582130267e+01
pressure[innode_7] 81.01325
pressure[innode_8] 8.0475071887158734e+01
pressure[source_1] 81.01325
pressure[source_2] 81.01325
pressure[source_3] 81.01325
pressure[sink_1] 1.01325
pressure[sink_2] 7.5993664863625142e+01
pressure[sink_3] 8.0475071887158734e+01
pressure[sink_4] 2.3433628742748212e+01
pressure[sink_5] 2.6150696131743345e+01
pressure[sink_6] 1.7401998679561361e+00
pressure[sink_7] 1.5097432059710396e+00
pressure[sink_8] 2.8603133727925240e+01
pressure[sink_9] 5.5799303072247310e+00
pressure[sink_10] 77.0513980048049
pressure[sink_11] 7.6899696697201350e+01
pressure[sink_12] 1.0132499999999995e+00
pressure[sink_13] 75.5202256786894
pressure[sink_14] 7.5547846727712340e+01
pressure[sink_15] 7.5871945064643739e+01
pressure[sink_16] 7.5878046862383670e+01
pressure[sink_17] 2.7368963337098094e+01
pressure[sink_18] 3.1193781704888615e+00
pressure[sink_19] 7.9239350313018548e+01
pressure[sink_20] 32.0220999986898
pressure[sink_21] 1.0132499999999995e+00
pressure[sink_22] 1.1532747690859610e+00
pressure[sink_23] 8.0310353875498947e+01
pressure[sink_24] 1.0132499999999995e+00
pressure[sink_25] 7.5525296582130267e+01
pressure[sink_26] 1.0628925962228017e+01
pressure[sink_27] 8.0386270337153121e+01
pressure[sink_28] 7.7057064959089274e+01
pressure[sink_29] 7.7352347232706464e+01
interdiction[source_1,sink_3] 0
interdiction[innode_1,sink_16] 0
interdiction[innode_6,sink_13] 0
interdiction[sink_13,sink_14] 0
interdiction[sink_14,sink_10] 0
interdiction[sink_25,sink_26] 1
interdiction[sink_26,sink_9] 0
interdiction[sink_9,sink_18] 0
interdiction[sink_26,sink_4] 0
interdiction[sink_4,sink_20] 0
interdiction[sink_18,sink_6] 0
interdiction[sink_25,innode_8] 0
interdiction[sink_6,sink_7] 0
interdiction[sink_6,sink_22] 0
interdiction[sink_7,sink_24] 0
interdiction[sink_22,sink_1] 0
interdiction[sink_24,sink_21] 0
interdiction[sink_21,sink_12] 0
interdiction[sink_7,sink_5] 1
interdiction[sink_5,sink_17] 0
interdiction[sink_17,sink_4] 1
interdiction[sink_17,sink_8] 0
interdiction[sink_3,sink_23] 0
interdiction[sink_8,sink_20] 0
interdiction[sink_25,sink_20] 0
interdiction[sink_25,sink_15] 0
interdiction[sink_15,sink_29] 0
interdiction[sink_29,sink_28] 0
interdiction[sink_29,sink_2] 0
interdiction[sink_2,sink_15] 0
interdiction[sink_29,innode_7] 0
interdiction[innode_4,sink_19] 0
interdiction[sink_19,innode_3] 0
interdiction[innode_4,innode_5] 0
interdiction[sink_27,innode_5] 0
interdiction[sink_27,sink_19] 0
interdiction[sink_10,sink_11] 0
interdiction[sink_10,innode_2] 0
interdiction[sink_10,innode_3] 0
interdiction[innode_6,sink_25] 0
interdiction[sink_11,innode_1] 0
interdiction[sink_19,innode_2] 0
interdiction[source_3,innode_4] 0
interdiction[source_2,innode_7] 0
interdiction[sink_3,innode_8] 0
WCcheckFlow[source_1,sink_3] 39
WCcheckFlow[innode_1,sink_16] 1
WCcheckFlow[innode_6,sink_13] 13
WCcheckFlow[sink_13,sink_14] 12
WCcheckFlow[sink_14,sink_10] 11
WCcheckFlow[sink_25,sink_26] 0
WCcheckFlow[sink_26,sink_9] 9
WCcheckFlow[sink_9,sink_18] 8
WCcheckFlow[sink_26,sink_4] -10
WCcheckFlow[sink_4,sink_20] -11
WCcheckFlow[sink_18,sink_6] 7
WCcheckFlow[sink_25,innode_8] -36
WCcheckFlow[sink_6,sink_7] 4
WCcheckFlow[sink_6,sink_22] 2
WCcheckFlow[sink_7,sink_24] 3
WCcheckFlow[sink_22,sink_1] 1
WCcheckFlow[sink_24,sink_21] 2
WCcheckFlow[sink_21,sink_12] 1
WCcheckFlow[sink_7,sink_5] 0
WCcheckFlow[sink_5,sink_17] -1
WCcheckFlow[sink_17,sink_4] 0
WCcheckFlow[sink_17,sink_8] -2
WCcheckFlow[sink_3,sink_23] 1
WCcheckFlow[sink_8,sink_20] -3
WCcheckFlow[sink_25,sink_20] 15
WCcheckFlow[sink_25,sink_15] 6
WCcheckFlow[sink_15,sink_29] 5
WCcheckFlow[sink_29,sink_28] 1
WCcheckFlow[sink_29,sink_2] 1
WCcheckFlow[sink_2,sink_15] 0
WCcheckFlow[sink_29,innode_7] 2
WCcheckFlow[innode_4,sink_19] -4
WCcheckFlow[sink_19,innode_3] -5
WCcheckFlow[innode_4,innode_5] 2
WCcheckFlow[sink_27,innode_5] -1
WCcheckFlow[sink_27,sink_19] 0
WCcheckFlow[sink_10,sink_11] 3
WCcheckFlow[sink_10,innode_2] 1
WCcheckFlow[sink_10,innode_3] 6
WCcheckFlow[innode_6,sink_25] -14
WCcheckFlow[sink_11,innode_1] 2
WCcheckFlow[sink_19,innode_2] 0
WCcheckFlow[source_3,innode_4] -1
WCcheckFlow[source_2,innode_7] -1
WCcheckFlow[sink_3,innode_8] 37
